
language ESSENCE' 1.0

letting numPlayers be 465
letting teamSize be 12
letting maxPoints be 85
letting points be [85, 61, 57, 55, 63, 67, 61, 45, 42, 43, 56, 43, 42, 53, 53, 44, 47, 39, 56, 41, 39, 45, 40, 38, 51, 34, 37, 51, 28, 33, 38, 27, 53, 37, 48, 33, 42, 44, 35, 30, 30, 37, 40, 34, 39, 31, 37, 31, 34, 43, 32, 34, 41, 43, 34, 30, 38, 32, 30, 30, 42, 38, 31, 34, 43, 34, 35, 26, 50, 32, 36, 40, 38, 31, 28, 38, 38, 38, 27, 0, 39, 34, 34, 34, 29, 33, 28, 25, 24, 36, 43, 33, 25, 26, 28, 38, 29, 28, 24, 28, 31, 37, 26, 30, 29, 27, 32, 32, 25, 27, 24, 30, 35, 43, 34, 26, 33, 40, 27, 24, 27, 27, 26, 23, 27, 28, 24, 26, 27, 27, 26, 27, 24, 23, 26, 28, 23, 26, 25, 39, 39, 14, 35, 27, 26, 30, 25, 38, 27, 29, 23, 23, 22, 25, 29, 20, 20, 21, 25, 28, 30, 25, 14, 14, 27, 22, 36, 24, 28, 29, 20, 23, 19, 26, 22, 20, 20, 28, 31, 35, 32, 19, 19, 23, 30, 18, 21, 20, 35, 30, 18, 19, 19, 21, 27, 9, 20, 23, 22, 23, 19, 21, 23, 30, 20, 20, 25, 23, 20, 22, 12, 19, 15, 18, 16, 8, 8, 8, 19, 19, 19, 21, 11, 15, 18, 10, 17, 14, 11, 16, 14, 18, 19, 14, 19, 15, 16, 14, 20, 15, 20, 14, 0, 18, 20, 9, 9, 15, 14, 14, 14, 13, 17, 12, 15, 8, 11, 14, 15, 13, 15, 0, 18, 13, 14, 13, 15, 8, 12, 13, 14, 16, 17, 10, 8, 8, 9, 16, 12, 11, 13, 10, 9, 16, 11, 10, 17, 11, 13, 11, 0, 12, 8, 14, 10, 11, 14, 13, 0, 8, 7, 9, 5, 8, 6, 8, 9, 8, 8, 5, 7, 4, 7, 8, 9, 7, 0, 7, 0, 5, 10, 6, 5, 6, 6, 0, 7, 7, 0, 5, 4, 7, 5, 4, 6, 5, 5, 5, 7, 5, 4, 7, 4, 6, 5, 3, 4, 3, 5, 0, 2, 3, 2, 2, 5, 4, 4, 3, 3, 3, 4, 3, 4, 3, 3, 4, 4, 3, 3, 5, 3, 3, 3, 4, 2, 0, 2, 2, 2, 0, 2, 0, 0, 2, 0, 3, 3, 2, 0, 2, 2, 2, 2, 2, 2, 2, 2, 1, 1, 1, 1, 1, 2, 0, 0, 0, 1, 1, 0, 2, 1, 0, 1, 1, 1, 1, 1, 1, 1, 1, 1, 1, 1, 1, 1, 1, 1, 1, 1, 0, 1, 1, 1, 1, 1, 1, 0, 1, 0, 1, 1, 0, 0, 0, 0, 0, 0, 0, 0, 0, 0, 0, 0, 0, 0, 0, 0, 0, 0, 0, 0, 0, 0, 0, 0]
letting positions be [2, 2, 3, 3, 2, 3, 1, 2, 2, 1, 1, 2, 2, 3, 1, 3, 3, 2, 2, 0, 3, 0, 3, 1, 3, 1, 0, 2, 1, 0, 0, 1, 2, 1, 2, 1, 2, 0, 3, 3, 2, 0, 2, 0, 2, 1, 3, 1, 0, 3, 0, 1, 0, 3, 0, 2, 0, 3, 1, 1, 3, 2, 0, 2, 2, 2, 1, 3, 1, 1, 2, 2, 1, 3, 1, 3, 1, 3, 2, 2, 2, 2, 3, 3, 2, 2, 3, 2, 2, 0, 1, 1, 2, 1, 2, 1, 2, 0, 3, 2, 1, 1, 1, 2, 1, 2, 2, 2, 1, 2, 1, 1, 1, 1, 2, 0, 2, 1, 2, 2, 2, 2, 2, 2, 2, 1, 1, 2, 0, 2, 2, 3, 2, 2, 2, 1, 1, 3, 2, 1, 1, 1, 1, 2, 1, 2, 2, 1, 2, 3, 2, 1, 1, 1, 2, 2, 2, 2, 1, 1, 2, 2, 1, 1, 2, 3, 1, 2, 2, 2, 2, 2, 1, 0, 2, 1, 1, 2, 1, 1, 1, 2, 3, 1, 1, 2, 2, 1, 1, 1, 3, 1, 1, 2, 2, 1, 2, 2, 2, 1, 3, 1, 2, 1, 2, 2, 2, 2, 2, 2, 1, 2, 1, 2, 2, 1, 1, 1, 0, 0, 1, 2, 1, 2, 3, 1, 2, 2, 1, 2, 2, 1, 1, 2, 2, 2, 2, 2, 1, 2, 1, 1, 2, 2, 2, 1, 1, 2, 3, 1, 1, 1, 2, 2, 2, 1, 3, 1, 1, 2, 2, 1, 1, 2, 2, 2, 3, 1, 1, 2, 3, 2, 2, 2, 1, 1, 2, 1, 2, 2, 1, 2, 1, 1, 2, 3, 1, 2, 3, 0, 1, 1, 2, 1, 2, 1, 1, 1, 1, 1, 3, 2, 1, 2, 3, 2, 1, 1, 3, 1, 3, 2, 0, 1, 2, 1, 1, 0, 2, 1, 2, 2, 1, 2, 3, 2, 3, 3, 1, 1, 2, 2, 3, 1, 2, 1, 3, 3, 1, 2, 3, 1, 2, 2, 2, 1, 2, 2, 1, 2, 1, 2, 1, 1, 1, 2, 1, 1, 0, 2, 2, 2, 0, 2, 2, 1, 1, 1, 2, 1, 2, 3, 3, 1, 3, 2, 2, 2, 2, 2, 1, 1, 2, 1, 1, 1, 2, 3, 2, 2, 1, 0, 1, 1, 1, 2, 0, 1, 3, 2, 1, 1, 3, 1, 2, 2, 3, 0, 2, 1, 2, 1, 2, 1, 0, 3, 0, 2, 0, 2, 1, 0, 1, 0, 2, 0, 0, 0, 1, 3, 2, 2, 2, 2, 2, 1, 2, 2, 0, 2, 1, 1, 0, 0, 0, 0, 0, 0, 0, 0, 0, 0, 1, 1, 2, 2, 3, 1, 3, 2, 1, 2, 3, 2, 2]
letting minPrice be 40
letting maxPrice be 125
letting priceLimit be 1000
letting prices be [125, 120, 120, 110, 115, 110, 70, 85, 80, 65, 70, 95, 80, 95, 65, 95, 90, 80, 90, 60, 75, 60, 85, 60, 80, 60, 55, 85, 60, 55, 55, 60, 75, 55, 75, 55, 70, 55, 60, 75, 70, 50, 70, 45, 70, 55, 60, 60, 50, 65, 50, 55, 50, 65, 50, 70, 50, 65, 50, 55, 65, 65, 45, 65, 65, 60, 55, 65, 50, 55, 65, 60, 55, 85, 55, 65, 55, 65, 75, 95, 60, 60, 60, 60, 55, 60, 60, 60, 65, 45, 55, 55, 60, 55, 60, 60, 75, 45, 60, 95, 50, 55, 50, 60, 55, 55, 55, 55, 50, 65, 50, 50, 55, 50, 55, 45, 55, 55, 55, 50, 50, 50, 85, 55, 50, 50, 45, 65, 45, 75, 70, 60, 65, 50, 55, 50, 50, 55, 50, 45, 50, 45, 50, 45, 50, 55, 70, 50, 50, 60, 55, 55, 55, 55, 60, 60, 60, 50, 45, 40, 50, 55, 45, 45, 50, 70, 50, 55, 55, 50, 55, 75, 55, 45, 45, 45, 45, 50, 45, 55, 50, 70, 55, 45, 45, 65, 65, 45, 45, 45, 55, 45, 45, 60, 60, 45, 45, 50, 50, 50, 70, 55, 55, 45, 55, 50, 50, 55, 50, 50, 45, 60, 65, 55, 55, 45, 45, 45, 45, 50, 50, 55, 45, 50, 60, 50, 45, 55, 45, 50, 45, 45, 45, 50, 60, 55, 70, 65, 50, 50, 45, 45, 60, 60, 50, 45, 45, 55, 55, 45, 45, 50, 65, 60, 45, 40, 95, 45, 45, 50, 60, 60, 45, 55, 60, 55, 55, 45, 50, 55, 55, 55, 50, 45, 50, 50, 55, 45, 45, 50, 45, 55, 45, 55, 50, 50, 45, 55, 55, 45, 50, 45, 45, 40, 50, 55, 55, 40, 45, 45, 60, 50, 45, 55, 60, 55, 55, 50, 60, 45, 50, 65, 45, 50, 60, 50, 50, 45, 55, 50, 60, 45, 45, 55, 45, 50, 60, 50, 55, 50, 55, 50, 60, 45, 50, 50, 70, 50, 45, 65, 55, 45, 55, 55, 45, 60, 55, 50, 45, 50, 45, 45, 45, 45, 45, 55, 55, 45, 45, 50, 50, 45, 45, 45, 45, 45, 45, 45, 45, 45, 45, 45, 45, 45, 45, 45, 60, 50, 45, 45, 50, 45, 55, 50, 45, 50, 45, 55, 55, 45, 45, 45, 50, 45, 45, 45, 45, 40, 45, 50, 40, 40, 45, 45, 60, 50, 45, 50, 65, 45, 50, 45, 45, 40, 45, 45, 50, 45, 40, 45, 40, 45, 40, 40, 45, 45, 45, 45, 40, 50, 45, 45, 45, 55, 45, 40, 50, 45, 50, 45, 45, 40, 45, 45, 45, 40, 45, 45, 40, 45, 40, 50, 45, 45, 55, 45, 50, 45, 50, 50, 55, 45, 70, 50, 50]
letting clubs be [9, 10, 10, 0, 9, 16, 9, 11, 7, 10, 9, 10, 10, 9, 9, 0, 8, 7, 16, 10, 19, 9, 11, 10, 2, 7, 7, 16, 5, 5, 11, 5, 16, 10, 2, 7, 6, 16, 3, 18, 18, 0, 8, 3, 6, 7, 15, 19, 19, 17, 18, 11, 17, 2, 12, 5, 8, 19, 19, 7, 17, 8, 1, 15, 2, 15, 12, 13, 16, 11, 8, 17, 6, 11, 19, 4, 9, 4, 5, 16, 17, 6, 6, 12, 19, 12, 7, 1, 13, 2, 16, 0, 1, 7, 5, 8, 11, 13, 1, 10, 0, 8, 3, 0, 11, 19, 12, 6, 19, 3, 19, 0, 8, 17, 17, 14, 4, 16, 14, 5, 14, 14, 10, 1, 15, 15, 3, 11, 15, 0, 0, 14, 7, 5, 14, 12, 14, 14, 3, 17, 2, 18, 4, 12, 15, 9, 11, 17, 8, 4, 7, 10, 10, 11, 4, 1, 13, 18, 12, 6, 16, 15, 1, 1, 4, 5, 2, 0, 9, 2, 1, 10, 5, 4, 19, 14, 14, 17, 6, 16, 4, 18, 13, 15, 6, 18, 7, 3, 2, 4, 1, 14, 14, 3, 16, 13, 3, 12, 12, 0, 5, 0, 9, 17, 14, 3, 2, 4, 0, 6, 1, 11, 5, 10, 13, 13, 13, 13, 6, 6, 15, 6, 1, 18, 15, 18, 0, 13, 1, 19, 13, 12, 12, 13, 9, 10, 5, 18, 8, 7, 8, 14, 5, 4, 2, 18, 18, 3, 3, 3, 3, 5, 9, 18, 15, 18, 10, 15, 0, 19, 8, 5, 4, 5, 3, 9, 9, 18, 5, 11, 2, 16, 16, 1, 6, 6, 13, 4, 8, 11, 12, 18, 19, 16, 15, 3, 2, 8, 12, 4, 11, 12, 13, 2, 11, 9, 16, 2, 12, 15, 7, 17, 18, 8, 18, 10, 9, 11, 15, 18, 15, 9, 15, 11, 9, 0, 16, 14, 6, 10, 16, 13, 14, 15, 11, 12, 17, 6, 0, 7, 10, 17, 8, 19, 4, 10, 5, 17, 17, 11, 13, 17, 7, 8, 8, 10, 4, 1, 17, 3, 13, 1, 1, 1, 2, 15, 11, 5, 13, 18, 11, 18, 2, 7, 13, 4, 0, 3, 1, 17, 18, 0, 6, 4, 18, 8, 5, 7, 17, 17, 11, 0, 4, 8, 12, 16, 6, 4, 3, 3, 0, 16, 11, 8, 8, 0, 15, 13, 9, 11, 14, 14, 2, 2, 2, 2, 16, 10, 5, 2, 16, 2, 8, 19, 9, 15, 5, 7, 7, 18, 4, 0, 17, 3, 16, 18, 17, 1, 17, 15, 15, 11, 15, 5, 5, 15, 2, 11, 11, 5, 3, 18, 19, 8, 12, 19, 8, 4, 12, 2, 13, 11, 1, 1, 1, 9, 12, 13, 14, 14, 16, 16, 18, 19, 19]

